\ENCODING=ISO-8859-1
\Problem name: k16x240b.mps

Maximize
 OBJ.....: 761 x....001         -62 x....002         + 295 x....003         -617 x....004         -265 x....005         + 540 x....006         + 412 x....007         -314 x....008         + 255 x....009         + 24 x....010         -382 x....011         -331 x....012         -117 x....013         + 515 x....014         -17 x....015         -688 x....016         -368 x....017         -705 x....018         + 406 x....019         + 959 x....020         + 753 x....021         + 701 x....022         + 887 x....023         + 803 x....024         -17 x....025         -936 x....026         -316 x....027         -931 x....028         + 838 x....029         -877 x....030         -338 x....031         + 363 x....032         -182 x....033         + 714 x....034         + 742 x....035         + 549 x....036         + 18 x....037         -81 x....038         + 993 x....039         -724 x....040         + 939 x....041         -625 x....042         -59 x....043         -414 x....044         + 886 x....045         + 682 x....046         -344 x....047         -479 x....048         + 973 x....049         -935 x....050         -517 x....051         + 729 x....052         + 523 x....053         -865 x....054         + 535 x....055         -491 x....056         -805 x....057         -777 x....058         -664 x....059         + 790 x....060         -897 x....061         -6 x....062         + 157 x....063         -83 x....064         -528 x....065         -98 x....066         -769 x....067         + 486 x....068         + 578 x....069         + 981 x....070         + 759 x....071         + 282 x....072         -641 x....073         -536 x....074         + 864 x....075         -752 x....076         -851 x....077         -477 x....078         -473 x....079         -875 x....080         -655 x....081         + 6 x....082         + 611 x....083         + 625 x....084         + 137 x....085         -89 x....086         -862 x....087         + 90 x....088         -109 x....089         -769 x....090         -117 x....091         -10 x....092         + 221 x....093         -957 x....094         + 664 x....095         + 689 x....096         -297 x....097         + 652 x....098         + 178 x....099         -716 x....100         + 636 x....101         -299 x....102         + 562 x....103         + 752 x....104         + 162 x....105         + 191 x....106         -996 x....107         + 307 x....108         + 710 x....109         -473 x....110         + 190 x....111         + 813 x....112         + 290 x....113         -196 x....114         + 441 x....115         -808 x....116         + 711 x....117         + 336 x....118         + 278 x....119         -634 x....120         + 563 x....121         -836 x....122         + 352 x....123         -213 x....124         + 958 x....125         -219 x....126         -760 x....127         -336 x....128         -564 x....129         + 176 x....130         -56 x....131         + 830 x....132         + 873 x....133         -729 x....134         + 585 x....135         + 38 x....136         + 458 x....137         + 346 x....138         -890 x....139         -68 x....140         + 630 x....141         + 296 x....142         -252 x....143         -76 x....144         + 857 x....145         -807 x....146         -127 x....147         + 333 x....148         + 525 x....149         -846 x....150         + 695 x....151         -147 x....152         -925 x....153         -188 x....154         + 397 x....155         -964 x....156         + 589 x....157         + 634 x....158         -543 x....159         + 782 x....160         -426 x....161         + 159 x....162         + 376 x....163         -789 x....164         + 426 x....165         -35 x....166         + 7 x....167         -352 x....168         -925 x....169         + 113 x....170         + 576 x....171         + 702 x....172         -827 x....173         -672 x....174         -371 x....175         + 787 x....176         -722 x....177         + 498 x....178         + 123 x....179         + 560 x....180         + 409 x....181         -178 x....182         -584 x....183         + 241 x....184         + 391 x....185         + 810 x....186         + 274 x....187         -17 x....188         + 208 x....189         + 488 x....190         -471 x....191         + 778 x....192         -350 x....193         + 902 x....194         + 985 x....195         -921 x....196         -369 x....197         -244 x....198         -277 x....199         -298 x....200         + 865 x....201         -936 x....202         -593 x....203         + 795 x....204         -612 x....205         -207 x....206         + 586 x....207         -577 x....208         -945 x....209         -288 x....210         + 979 x....211         + 460 x....212         + 291 x....213         -840 x....214         -295 x....215         -315 x....216         + 966 x....217         + 736 x....218         + 425 x....219         + 177 x....220         + 227 x....221         + 951 x....222         -281 x....223         + 874 x....224         + 617 x....225         -532 x....226         + 710 x....227         -988 x....228         + 221 x....229         -802 x....230         -290 x....231         -150 x....232         -742 x....233         -125 x....234         -351 x....235         -597 x....236         + 664 x....237         -762 x....238         -417 x....239         + 716 x....240         -293 y....001         -674 y....002         -60 y....003         + 995 y....004         -518 y....005         + 641 y....006         -556 y....007         -549 y....008         + 380 y....009         + 627 y....010         + 385 y....011         -628 y....012         + 342 y....013         -893 y....014         -990 y....015         -38 y....016         -667 y....017         + 477 y....018         -30 y....019         + 311 y....020         + 671 y....021         + 437 y....022         -836 y....023         + 686 y....024         -685 y....025         -191 y....026         + 846 y....027         + 737 y....028         -196 y....029         -807 y....030         + 456 y....031         + 508 y....032         -484 y....033         -601 y....034         + 267 y....035         -6 y....036         + 798 y....037         + 468 y....038         + 442 y....039         -58 y....040         + 98 y....041         -409 y....042         + 310 y....043         -557 y....044         -305 y....045         + 316 y....046         + 162 y....047         -215 y....048         -203 y....049         -865 y....050         -901 y....051         -768 y....052         + 330 y....053         -741 y....054         + 676 y....055         + 641 y....056         -174 y....057         + 286 y....058         + 381 y....059         + 387 y....060         + 476 y....061         -399 y....062         -341 y....063         + 988 y....064         -242 y....065         + 922 y....066         -15 y....067         -680 y....068         + 155 y....069         -809 y....070         + 258 y....071         -744 y....072         -221 y....073         -428 y....074         -304 y....075         + 231 y....076         + 645 y....077         + 854 y....078         -981 y....079         -794 y....080         + 747 y....081         -886 y....082         -804 y....083         + 80 y....084         -870 y....085         + 868 y....086         -515 y....087         -287 y....088         + 157 y....089         + 624 y....090         -896 y....091         -364 y....092         + 982 y....093         -241 y....094         -612 y....095         -257 y....096         -554 y....097         + 370 y....098         -180 y....099         + 597 y....100         + 557 y....101         -918 y....102         + 849 y....103         -900 y....104         -589 y....105         -691 y....106         + 327 y....107         + 813 y....108         + 921 y....109         + 342 y....110         -977 y....111         + 432 y....112         + 213 y....113         -785 y....114         -485 y....115         + 101 y....116         -914 y....117         -243 y....118         + 810 y....119         + 0 y....120         -616 y....121         + 671 y....122         + 394 y....123         -869 y....124         -805 y....125         + 778 y....126         -369 y....127         -363 y....128         + 151 y....129         + 448 y....130         + 991 y....131         -527 y....132         + 526 y....133         + 604 y....134         -431 y....135         + 694 y....136         + 910 y....137         + 893 y....138         + 510 y....139         + 595 y....140         -1 y....141         + 529 y....142         + 30 y....143         + 970 y....144         + 740 y....145         + 302 y....146         -165 y....147         + 583 y....148         -938 y....149         -352 y....150         -652 y....151         -796 y....152         -916 y....153         + 738 y....154         -669 y....155         -725 y....156         + 519 y....157         -42 y....158         -331 y....159         -326 y....160         -591 y....161         -337 y....162         -96 y....163         + 692 y....164         -730 y....165         + 469 y....166         + 389 y....167         + 937 y....168         + 126 y....169         -97 y....170         + 296 y....171         + 883 y....172         -565 y....173         -671 y....174         + 856 y....175         + 933 y....176         + 627 y....177         -306 y....178         + 280 y....179         + 447 y....180         + 99 y....181         + 624 y....182         + 647 y....183         -60 y....184         + 126 y....185         + 735 y....186         + 211 y....187         -351 y....188         -543 y....189         + 637 y....190         + 80 y....191         -137 y....192         -936 y....193         + 980 y....194         -681 y....195         -669 y....196         + 213 y....197         + 705 y....198         -968 y....199         -896 y....200         -628 y....201         + 325 y....202         + 983 y....203         -436 y....204         + 411 y....205         + 603 y....206         -500 y....207         + 42 y....208         -700 y....209         + 538 y....210         -747 y....211         + 156 y....212         -74 y....213         + 896 y....214         -900 y....215         -944 y....216         + 395 y....217         + 68 y....218         -538 y....219         + 848 y....220         -291 y....221         + 538 y....222         -525 y....223         -231 y....224         + 282 y....225         -209 y....226         -143 y....227         -741 y....228         -740 y....229         -353 y....230         -641 y....231         -372 y....232         + 729 y....233         -655 y....234         + 188 y....235         + 143 y....236         + 944 y....237         + 446 y....238         -812 y....239         -992 y....240
Subject To
 CNS...01: - x....001 + x....002 - x....003 + x....004 - x....005 + x....006
           - x....007 + x....008 - x....009 + x....010 - x....011 + x....012
           - x....013 + x....014 - x....015 + x....016 - x....017 + x....018
           - x....019 + x....020 - x....021 + x....022 - x....023 + x....024
           - x....025 + x....026 - x....027 + x....028 - x....029 + x....030
            = -402
 CNS...02: x....001 - x....002 - x....031 + x....032 - x....033 + x....034
           - x....035 + x....036 - x....037 + x....038 - x....039 + x....040
           - x....041 + x....042 - x....043 + x....044 - x....045 + x....046
           - x....047 + x....048 - x....049 + x....050 - x....051 + x....052
           - x....053 + x....054 - x....055 + x....056 - x....057 + x....058
            = 24
 CNS...03: x....003 - x....004 + x....031 - x....032 - x....059 + x....060
           - x....061 + x....062 - x....063 + x....064 - x....065 + x....066
           - x....067 + x....068 - x....069 + x....070 - x....071 + x....072
           - x....073 + x....074 - x....075 + x....076 - x....077 + x....078
           - x....079 + x....080 - x....081 + x....082 - x....083 + x....084
            = 104
 CNS...04: x....005 - x....006 + x....033 - x....034 + x....059 - x....060
           - x....085 + x....086 - x....087 + x....088 - x....089 + x....090
           - x....091 + x....092 - x....093 + x....094 - x....095 + x....096
           - x....097 + x....098 - x....099 + x....100 - x....101 + x....102
           - x....103 + x....104 - x....105 + x....106 - x....107 + x....108
            = 138
 CNS...05: x....007 - x....008 + x....035 - x....036 + x....061 - x....062
           + x....085 - x....086 - x....109 + x....110 - x....111 + x....112
           - x....113 + x....114 - x....115 + x....116 - x....117 + x....118
           - x....119 + x....120 - x....121 + x....122 - x....123 + x....124
           - x....125 + x....126 - x....127 + x....128 - x....129 + x....130
            = -15
 CNS...06: x....009 - x....010 + x....037 - x....038 + x....063 - x....064
           + x....087 - x....088 + x....109 - x....110 - x....131 + x....132
           - x....133 + x....134 - x....135 + x....136 - x....137 + x....138
           - x....139 + x....140 - x....141 + x....142 - x....143 + x....144
           - x....145 + x....146 - x....147 + x....148 - x....149 + x....150
            = 209
 CNS...07: x....011 - x....012 + x....039 - x....040 + x....065 - x....066
           + x....089 - x....090 + x....111 - x....112 + x....131 - x....132
           - x....151 + x....152 - x....153 + x....154 - x....155 + x....156
           - x....157 + x....158 - x....159 + x....160 - x....161 + x....162
           - x....163 + x....164 - x....165 + x....166 - x....167 + x....168
            = 169
 CNS...08: x....013 - x....014 + x....041 - x....042 + x....067 - x....068
           + x....091 - x....092 + x....113 - x....114 + x....133 - x....134
           + x....151 - x....152 - x....169 + x....170 - x....171 + x....172
           - x....173 + x....174 - x....175 + x....176 - x....177 + x....178
           - x....179 + x....180 - x....181 + x....182 - x....183 + x....184
            = -77
 CNS...09: x....015 - x....016 + x....043 - x....044 + x....069 - x....070
           + x....093 - x....094 + x....115 - x....116 + x....135 - x....136
           + x....153 - x....154 + x....169 - x....170 - x....185 + x....186
           - x....187 + x....188 - x....189 + x....190 - x....191 + x....192
           - x....193 + x....194 - x....195 + x....196 - x....197 + x....198
            = 127
 CNS...10: x....017 - x....018 + x....045 - x....046 + x....071 - x....072
           + x....095 - x....096 + x....117 - x....118 + x....137 - x....138
           + x....155 - x....156 + x....171 - x....172 + x....185 - x....186
           - x....199 + x....200 - x....201 + x....202 - x....203 + x....204
           - x....205 + x....206 - x....207 + x....208 - x....209 + x....210
            = 66
 CNS...11: x....019 - x....020 + x....047 - x....048 + x....073 - x....074
           + x....097 - x....098 + x....119 - x....120 + x....139 - x....140
           + x....157 - x....158 + x....173 - x....174 + x....187 - x....188
           + x....199 - x....200 - x....211 + x....212 - x....213 + x....214
           - x....215 + x....216 - x....217 + x....218 - x....219 + x....220
            = -4
 CNS...12: x....021 - x....022 + x....049 - x....050 + x....075 - x....076
           + x....099 - x....100 + x....121 - x....122 + x....141 - x....142
           + x....159 - x....160 + x....175 - x....176 + x....189 - x....190
           + x....201 - x....202 + x....211 - x....212 - x....221 + x....222
           - x....223 + x....224 - x....225 + x....226 - x....227 + x....228
            = 163
 CNS...13: x....023 - x....024 + x....051 - x....052 + x....077 - x....078
           + x....101 - x....102 + x....123 - x....124 + x....143 - x....144
           + x....161 - x....162 + x....177 - x....178 + x....191 - x....192
           + x....203 - x....204 + x....213 - x....214 + x....221 - x....222
           - x....229 + x....230 - x....231 + x....232 - x....233 + x....234
            = -101
 CNS...14: x....025 - x....026 + x....053 - x....054 + x....079 - x....080
           + x....103 - x....104 + x....125 - x....126 + x....145 - x....146
           + x....163 - x....164 + x....179 - x....180 + x....193 - x....194
           + x....205 - x....206 + x....215 - x....216 + x....223 - x....224
           + x....229 - x....230 - x....235 + x....236 - x....237 + x....238
            = -190
 CNS...15: x....027 - x....028 + x....055 - x....056 + x....081 - x....082
           + x....105 - x....106 + x....127 - x....128 + x....147 - x....148
           + x....165 - x....166 + x....181 - x....182 + x....195 - x....196
           + x....207 - x....208 + x....217 - x....218 + x....225 - x....226
           + x....231 - x....232 + x....235 - x....236 - x....239 + x....240
            = -86
 CNS...16: x....029 - x....030 + x....057 - x....058 + x....083 - x....084
           + x....107 - x....108 + x....129 - x....130 + x....149 - x....150
           + x....167 - x....168 + x....183 - x....184 + x....197 - x....198
           + x....209 - x....210 + x....219 - x....220 + x....227 - x....228
           + x....233 - x....234 + x....237 - x....238 + x....239 - x....240
            = -125
 UC...001: x....001 - 1000 y....001 <= 0
 UC...002: x....002 - 1000 y....002 <= 0
 UC...003: x....003 - 1000 y....003 <= 0
 UC...004: x....004 - 1000 y....004 <= 0
 UC...005: x....005 - 1000 y....005 <= 0
 UC...006: x....006 - 1000 y....006 <= 0
 UC...007: x....007 - 1000 y....007 <= 0
 UC...008: x....008 - 1000 y....008 <= 0
 UC...009: x....009 - 1000 y....009 <= 0
 UC...010: x....010 - 1000 y....010 <= 0
 UC...011: x....011 - 1000 y....011 <= 0
 UC...012: x....012 - 1000 y....012 <= 0
 UC...013: x....013 - 1000 y....013 <= 0
 UC...014: x....014 - 1000 y....014 <= 0
 UC...015: x....015 - 1000 y....015 <= 0
 UC...016: x....016 - 1000 y....016 <= 0
 UC...017: x....017 - 1000 y....017 <= 0
 UC...018: x....018 - 1000 y....018 <= 0
 UC...019: x....019 - 1000 y....019 <= 0
 UC...020: x....020 - 1000 y....020 <= 0
 UC...021: x....021 - 1000 y....021 <= 0
 UC...022: x....022 - 1000 y....022 <= 0
 UC...023: x....023 - 1000 y....023 <= 0
 UC...024: x....024 - 1000 y....024 <= 0
 UC...025: x....025 - 1000 y....025 <= 0
 UC...026: x....026 - 1000 y....026 <= 0
 UC...027: x....027 - 1000 y....027 <= 0
 UC...028: x....028 - 1000 y....028 <= 0
 UC...029: x....029 - 1000 y....029 <= 0
 UC...030: x....030 - 1000 y....030 <= 0
 UC...031: x....031 - 1000 y....031 <= 0
 UC...032: x....032 - 1000 y....032 <= 0
 UC...033: x....033 - 1000 y....033 <= 0
 UC...034: x....034 - 1000 y....034 <= 0
 UC...035: x....035 - 1000 y....035 <= 0
 UC...036: x....036 - 1000 y....036 <= 0
 UC...037: x....037 - 1000 y....037 <= 0
 UC...038: x....038 - 1000 y....038 <= 0
 UC...039: x....039 - 1000 y....039 <= 0
 UC...040: x....040 - 1000 y....040 <= 0
 UC...041: x....041 - 1000 y....041 <= 0
 UC...042: x....042 - 1000 y....042 <= 0
 UC...043: x....043 - 1000 y....043 <= 0
 UC...044: x....044 - 1000 y....044 <= 0
 UC...045: x....045 - 1000 y....045 <= 0
 UC...046: x....046 - 1000 y....046 <= 0
 UC...047: x....047 - 1000 y....047 <= 0
 UC...048: x....048 - 1000 y....048 <= 0
 UC...049: x....049 - 1000 y....049 <= 0
 UC...050: x....050 - 1000 y....050 <= 0
 UC...051: x....051 - 1000 y....051 <= 0
 UC...052: x....052 - 1000 y....052 <= 0
 UC...053: x....053 - 1000 y....053 <= 0
 UC...054: x....054 - 1000 y....054 <= 0
 UC...055: x....055 - 1000 y....055 <= 0
 UC...056: x....056 - 1000 y....056 <= 0
 UC...057: x....057 - 1000 y....057 <= 0
 UC...058: x....058 - 1000 y....058 <= 0
 UC...059: x....059 - 1000 y....059 <= 0
 UC...060: x....060 - 1000 y....060 <= 0
 UC...061: x....061 - 1000 y....061 <= 0
 UC...062: x....062 - 1000 y....062 <= 0
 UC...063: x....063 - 1000 y....063 <= 0
 UC...064: x....064 - 1000 y....064 <= 0
 UC...065: x....065 - 1000 y....065 <= 0
 UC...066: x....066 - 1000 y....066 <= 0
 UC...067: x....067 - 1000 y....067 <= 0
 UC...068: x....068 - 1000 y....068 <= 0
 UC...069: x....069 - 1000 y....069 <= 0
 UC...070: x....070 - 1000 y....070 <= 0
 UC...071: x....071 - 1000 y....071 <= 0
 UC...072: x....072 - 1000 y....072 <= 0
 UC...073: x....073 - 1000 y....073 <= 0
 UC...074: x....074 - 1000 y....074 <= 0
 UC...075: x....075 - 1000 y....075 <= 0
 UC...076: x....076 - 1000 y....076 <= 0
 UC...077: x....077 - 1000 y....077 <= 0
 UC...078: x....078 - 1000 y....078 <= 0
 UC...079: x....079 - 1000 y....079 <= 0
 UC...080: x....080 - 1000 y....080 <= 0
 UC...081: x....081 - 1000 y....081 <= 0
 UC...082: x....082 - 1000 y....082 <= 0
 UC...083: x....083 - 1000 y....083 <= 0
 UC...084: x....084 - 1000 y....084 <= 0
 UC...085: x....085 - 1000 y....085 <= 0
 UC...086: x....086 - 1000 y....086 <= 0
 UC...087: x....087 - 1000 y....087 <= 0
 UC...088: x....088 - 1000 y....088 <= 0
 UC...089: x....089 - 1000 y....089 <= 0
 UC...090: x....090 - 1000 y....090 <= 0
 UC...091: x....091 - 1000 y....091 <= 0
 UC...092: x....092 - 1000 y....092 <= 0
 UC...093: x....093 - 1000 y....093 <= 0
 UC...094: x....094 - 1000 y....094 <= 0
 UC...095: x....095 - 1000 y....095 <= 0
 UC...096: x....096 - 1000 y....096 <= 0
 UC...097: x....097 - 1000 y....097 <= 0
 UC...098: x....098 - 1000 y....098 <= 0
 UC...099: x....099 - 1000 y....099 <= 0
 UC...100: x....100 - 1000 y....100 <= 0
 UC...101: x....101 - 1000 y....101 <= 0
 UC...102: x....102 - 1000 y....102 <= 0
 UC...103: x....103 - 1000 y....103 <= 0
 UC...104: x....104 - 1000 y....104 <= 0
 UC...105: x....105 - 1000 y....105 <= 0
 UC...106: x....106 - 1000 y....106 <= 0
 UC...107: x....107 - 1000 y....107 <= 0
 UC...108: x....108 - 1000 y....108 <= 0
 UC...109: x....109 - 1000 y....109 <= 0
 UC...110: x....110 - 1000 y....110 <= 0
 UC...111: x....111 - 1000 y....111 <= 0
 UC...112: x....112 - 1000 y....112 <= 0
 UC...113: x....113 - 1000 y....113 <= 0
 UC...114: x....114 - 1000 y....114 <= 0
 UC...115: x....115 - 1000 y....115 <= 0
 UC...116: x....116 - 1000 y....116 <= 0
 UC...117: x....117 - 1000 y....117 <= 0
 UC...118: x....118 - 1000 y....118 <= 0
 UC...119: x....119 - 1000 y....119 <= 0
 UC...120: x....120 - 1000 y....120 <= 0
 UC...121: x....121 - 1000 y....121 <= 0
 UC...122: x....122 - 1000 y....122 <= 0
 UC...123: x....123 - 1000 y....123 <= 0
 UC...124: x....124 - 1000 y....124 <= 0
 UC...125: x....125 - 1000 y....125 <= 0
 UC...126: x....126 - 1000 y....126 <= 0
 UC...127: x....127 - 1000 y....127 <= 0
 UC...128: x....128 - 1000 y....128 <= 0
 UC...129: x....129 - 1000 y....129 <= 0
 UC...130: x....130 - 1000 y....130 <= 0
 UC...131: x....131 - 1000 y....131 <= 0
 UC...132: x....132 - 1000 y....132 <= 0
 UC...133: x....133 - 1000 y....133 <= 0
 UC...134: x....134 - 1000 y....134 <= 0
 UC...135: x....135 - 1000 y....135 <= 0
 UC...136: x....136 - 1000 y....136 <= 0
 UC...137: x....137 - 1000 y....137 <= 0
 UC...138: x....138 - 1000 y....138 <= 0
 UC...139: x....139 - 1000 y....139 <= 0
 UC...140: x....140 - 1000 y....140 <= 0
 UC...141: x....141 - 1000 y....141 <= 0
 UC...142: x....142 - 1000 y....142 <= 0
 UC...143: x....143 - 1000 y....143 <= 0
 UC...144: x....144 - 1000 y....144 <= 0
 UC...145: x....145 - 1000 y....145 <= 0
 UC...146: x....146 - 1000 y....146 <= 0
 UC...147: x....147 - 1000 y....147 <= 0
 UC...148: x....148 - 1000 y....148 <= 0
 UC...149: x....149 - 1000 y....149 <= 0
 UC...150: x....150 - 1000 y....150 <= 0
 UC...151: x....151 - 1000 y....151 <= 0
 UC...152: x....152 - 1000 y....152 <= 0
 UC...153: x....153 - 1000 y....153 <= 0
 UC...154: x....154 - 1000 y....154 <= 0
 UC...155: x....155 - 1000 y....155 <= 0
 UC...156: x....156 - 1000 y....156 <= 0
 UC...157: x....157 - 1000 y....157 <= 0
 UC...158: x....158 - 1000 y....158 <= 0
 UC...159: x....159 - 1000 y....159 <= 0
 UC...160: x....160 - 1000 y....160 <= 0
 UC...161: x....161 - 1000 y....161 <= 0
 UC...162: x....162 - 1000 y....162 <= 0
 UC...163: x....163 - 1000 y....163 <= 0
 UC...164: x....164 - 1000 y....164 <= 0
 UC...165: x....165 - 1000 y....165 <= 0
 UC...166: x....166 - 1000 y....166 <= 0
 UC...167: x....167 - 1000 y....167 <= 0
 UC...168: x....168 - 1000 y....168 <= 0
 UC...169: x....169 - 1000 y....169 <= 0
 UC...170: x....170 - 1000 y....170 <= 0
 UC...171: x....171 - 1000 y....171 <= 0
 UC...172: x....172 - 1000 y....172 <= 0
 UC...173: x....173 - 1000 y....173 <= 0
 UC...174: x....174 - 1000 y....174 <= 0
 UC...175: x....175 - 1000 y....175 <= 0
 UC...176: x....176 - 1000 y....176 <= 0
 UC...177: x....177 - 1000 y....177 <= 0
 UC...178: x....178 - 1000 y....178 <= 0
 UC...179: x....179 - 1000 y....179 <= 0
 UC...180: x....180 - 1000 y....180 <= 0
 UC...181: x....181 - 1000 y....181 <= 0
 UC...182: x....182 - 1000 y....182 <= 0
 UC...183: x....183 - 1000 y....183 <= 0
 UC...184: x....184 - 1000 y....184 <= 0
 UC...185: x....185 - 1000 y....185 <= 0
 UC...186: x....186 - 1000 y....186 <= 0
 UC...187: x....187 - 1000 y....187 <= 0
 UC...188: x....188 - 1000 y....188 <= 0
 UC...189: x....189 - 1000 y....189 <= 0
 UC...190: x....190 - 1000 y....190 <= 0
 UC...191: x....191 - 1000 y....191 <= 0
 UC...192: x....192 - 1000 y....192 <= 0
 UC...193: x....193 - 1000 y....193 <= 0
 UC...194: x....194 - 1000 y....194 <= 0
 UC...195: x....195 - 1000 y....195 <= 0
 UC...196: x....196 - 1000 y....196 <= 0
 UC...197: x....197 - 1000 y....197 <= 0
 UC...198: x....198 - 1000 y....198 <= 0
 UC...199: x....199 - 1000 y....199 <= 0
 UC...200: x....200 - 1000 y....200 <= 0
 UC...201: x....201 - 1000 y....201 <= 0
 UC...202: x....202 - 1000 y....202 <= 0
 UC...203: x....203 - 1000 y....203 <= 0
 UC...204: x....204 - 1000 y....204 <= 0
 UC...205: x....205 - 1000 y....205 <= 0
 UC...206: x....206 - 1000 y....206 <= 0
 UC...207: x....207 - 1000 y....207 <= 0
 UC...208: x....208 - 1000 y....208 <= 0
 UC...209: x....209 - 1000 y....209 <= 0
 UC...210: x....210 - 1000 y....210 <= 0
 UC...211: x....211 - 1000 y....211 <= 0
 UC...212: x....212 - 1000 y....212 <= 0
 UC...213: x....213 - 1000 y....213 <= 0
 UC...214: x....214 - 1000 y....214 <= 0
 UC...215: x....215 - 1000 y....215 <= 0
 UC...216: x....216 - 1000 y....216 <= 0
 UC...217: x....217 - 1000 y....217 <= 0
 UC...218: x....218 - 1000 y....218 <= 0
 UC...219: x....219 - 1000 y....219 <= 0
 UC...220: x....220 - 1000 y....220 <= 0
 UC...221: x....221 - 1000 y....221 <= 0
 UC...222: x....222 - 1000 y....222 <= 0
 UC...223: x....223 - 1000 y....223 <= 0
 UC...224: x....224 - 1000 y....224 <= 0
 UC...225: x....225 - 1000 y....225 <= 0
 UC...226: x....226 - 1000 y....226 <= 0
 UC...227: x....227 - 1000 y....227 <= 0
 UC...228: x....228 - 1000 y....228 <= 0
 UC...229: x....229 - 1000 y....229 <= 0
 UC...230: x....230 - 1000 y....230 <= 0
 UC...231: x....231 - 1000 y....231 <= 0
 UC...232: x....232 - 1000 y....232 <= 0
 UC...233: x....233 - 1000 y....233 <= 0
 UC...234: x....234 - 1000 y....234 <= 0
 UC...235: x....235 - 1000 y....235 <= 0
 UC...236: x....236 - 1000 y....236 <= 0
 UC...237: x....237 - 1000 y....237 <= 0
 UC...238: x....238 - 1000 y....238 <= 0
 UC...239: x....239 - 1000 y....239 <= 0
 UC...240: x....240 - 1000 y....240 <= 0
Bounds
 0 <= x....001 <= 1000
 0 <= x....002 <= 1000
 0 <= x....003 <= 1000
 0 <= x....004 <= 1000
 0 <= x....005 <= 1000
 0 <= x....006 <= 1000
 0 <= x....007 <= 1000
 0 <= x....008 <= 1000
 0 <= x....009 <= 1000
 0 <= x....010 <= 1000
 0 <= x....011 <= 1000
 0 <= x....012 <= 1000
 0 <= x....013 <= 1000
 0 <= x....014 <= 1000
 0 <= x....015 <= 1000
 0 <= x....016 <= 1000
 0 <= x....017 <= 1000
 0 <= x....018 <= 1000
 0 <= x....019 <= 1000
 0 <= x....020 <= 1000
 0 <= x....021 <= 1000
 0 <= x....022 <= 1000
 0 <= x....023 <= 1000
 0 <= x....024 <= 1000
 0 <= x....025 <= 1000
 0 <= x....026 <= 1000
 0 <= x....027 <= 1000
 0 <= x....028 <= 1000
 0 <= x....029 <= 1000
 0 <= x....030 <= 1000
 0 <= x....031 <= 1000
 0 <= x....032 <= 1000
 0 <= x....033 <= 1000
 0 <= x....034 <= 1000
 0 <= x....035 <= 1000
 0 <= x....036 <= 1000
 0 <= x....037 <= 1000
 0 <= x....038 <= 1000
 0 <= x....039 <= 1000
 0 <= x....040 <= 1000
 0 <= x....041 <= 1000
 0 <= x....042 <= 1000
 0 <= x....043 <= 1000
 0 <= x....044 <= 1000
 0 <= x....045 <= 1000
 0 <= x....046 <= 1000
 0 <= x....047 <= 1000
 0 <= x....048 <= 1000
 0 <= x....049 <= 1000
 0 <= x....050 <= 1000
 0 <= x....051 <= 1000
 0 <= x....052 <= 1000
 0 <= x....053 <= 1000
 0 <= x....054 <= 1000
 0 <= x....055 <= 1000
 0 <= x....056 <= 1000
 0 <= x....057 <= 1000
 0 <= x....058 <= 1000
 0 <= x....059 <= 1000
 0 <= x....060 <= 1000
 0 <= x....061 <= 1000
 0 <= x....062 <= 1000
 0 <= x....063 <= 1000
 0 <= x....064 <= 1000
 0 <= x....065 <= 1000
 0 <= x....066 <= 1000
 0 <= x....067 <= 1000
 0 <= x....068 <= 1000
 0 <= x....069 <= 1000
 0 <= x....070 <= 1000
 0 <= x....071 <= 1000
 0 <= x....072 <= 1000
 0 <= x....073 <= 1000
 0 <= x....074 <= 1000
 0 <= x....075 <= 1000
 0 <= x....076 <= 1000
 0 <= x....077 <= 1000
 0 <= x....078 <= 1000
 0 <= x....079 <= 1000
 0 <= x....080 <= 1000
 0 <= x....081 <= 1000
 0 <= x....082 <= 1000
 0 <= x....083 <= 1000
 0 <= x....084 <= 1000
 0 <= x....085 <= 1000
 0 <= x....086 <= 1000
 0 <= x....087 <= 1000
 0 <= x....088 <= 1000
 0 <= x....089 <= 1000
 0 <= x....090 <= 1000
 0 <= x....091 <= 1000
 0 <= x....092 <= 1000
 0 <= x....093 <= 1000
 0 <= x....094 <= 1000
 0 <= x....095 <= 1000
 0 <= x....096 <= 1000
 0 <= x....097 <= 1000
 0 <= x....098 <= 1000
 0 <= x....099 <= 1000
 0 <= x....100 <= 1000
 0 <= x....101 <= 1000
 0 <= x....102 <= 1000
 0 <= x....103 <= 1000
 0 <= x....104 <= 1000
 0 <= x....105 <= 1000
 0 <= x....106 <= 1000
 0 <= x....107 <= 1000
 0 <= x....108 <= 1000
 0 <= x....109 <= 1000
 0 <= x....110 <= 1000
 0 <= x....111 <= 1000
 0 <= x....112 <= 1000
 0 <= x....113 <= 1000
 0 <= x....114 <= 1000
 0 <= x....115 <= 1000
 0 <= x....116 <= 1000
 0 <= x....117 <= 1000
 0 <= x....118 <= 1000
 0 <= x....119 <= 1000
 0 <= x....120 <= 1000
 0 <= x....121 <= 1000
 0 <= x....122 <= 1000
 0 <= x....123 <= 1000
 0 <= x....124 <= 1000
 0 <= x....125 <= 1000
 0 <= x....126 <= 1000
 0 <= x....127 <= 1000
 0 <= x....128 <= 1000
 0 <= x....129 <= 1000
 0 <= x....130 <= 1000
 0 <= x....131 <= 1000
 0 <= x....132 <= 1000
 0 <= x....133 <= 1000
 0 <= x....134 <= 1000
 0 <= x....135 <= 1000
 0 <= x....136 <= 1000
 0 <= x....137 <= 1000
 0 <= x....138 <= 1000
 0 <= x....139 <= 1000
 0 <= x....140 <= 1000
 0 <= x....141 <= 1000
 0 <= x....142 <= 1000
 0 <= x....143 <= 1000
 0 <= x....144 <= 1000
 0 <= x....145 <= 1000
 0 <= x....146 <= 1000
 0 <= x....147 <= 1000
 0 <= x....148 <= 1000
 0 <= x....149 <= 1000
 0 <= x....150 <= 1000
 0 <= x....151 <= 1000
 0 <= x....152 <= 1000
 0 <= x....153 <= 1000
 0 <= x....154 <= 1000
 0 <= x....155 <= 1000
 0 <= x....156 <= 1000
 0 <= x....157 <= 1000
 0 <= x....158 <= 1000
 0 <= x....159 <= 1000
 0 <= x....160 <= 1000
 0 <= x....161 <= 1000
 0 <= x....162 <= 1000
 0 <= x....163 <= 1000
 0 <= x....164 <= 1000
 0 <= x....165 <= 1000
 0 <= x....166 <= 1000
 0 <= x....167 <= 1000
 0 <= x....168 <= 1000
 0 <= x....169 <= 1000
 0 <= x....170 <= 1000
 0 <= x....171 <= 1000
 0 <= x....172 <= 1000
 0 <= x....173 <= 1000
 0 <= x....174 <= 1000
 0 <= x....175 <= 1000
 0 <= x....176 <= 1000
 0 <= x....177 <= 1000
 0 <= x....178 <= 1000
 0 <= x....179 <= 1000
 0 <= x....180 <= 1000
 0 <= x....181 <= 1000
 0 <= x....182 <= 1000
 0 <= x....183 <= 1000
 0 <= x....184 <= 1000
 0 <= x....185 <= 1000
 0 <= x....186 <= 1000
 0 <= x....187 <= 1000
 0 <= x....188 <= 1000
 0 <= x....189 <= 1000
 0 <= x....190 <= 1000
 0 <= x....191 <= 1000
 0 <= x....192 <= 1000
 0 <= x....193 <= 1000
 0 <= x....194 <= 1000
 0 <= x....195 <= 1000
 0 <= x....196 <= 1000
 0 <= x....197 <= 1000
 0 <= x....198 <= 1000
 0 <= x....199 <= 1000
 0 <= x....200 <= 1000
 0 <= x....201 <= 1000
 0 <= x....202 <= 1000
 0 <= x....203 <= 1000
 0 <= x....204 <= 1000
 0 <= x....205 <= 1000
 0 <= x....206 <= 1000
 0 <= x....207 <= 1000
 0 <= x....208 <= 1000
 0 <= x....209 <= 1000
 0 <= x....210 <= 1000
 0 <= x....211 <= 1000
 0 <= x....212 <= 1000
 0 <= x....213 <= 1000
 0 <= x....214 <= 1000
 0 <= x....215 <= 1000
 0 <= x....216 <= 1000
 0 <= x....217 <= 1000
 0 <= x....218 <= 1000
 0 <= x....219 <= 1000
 0 <= x....220 <= 1000
 0 <= x....221 <= 1000
 0 <= x....222 <= 1000
 0 <= x....223 <= 1000
 0 <= x....224 <= 1000
 0 <= x....225 <= 1000
 0 <= x....226 <= 1000
 0 <= x....227 <= 1000
 0 <= x....228 <= 1000
 0 <= x....229 <= 1000
 0 <= x....230 <= 1000
 0 <= x....231 <= 1000
 0 <= x....232 <= 1000
 0 <= x....233 <= 1000
 0 <= x....234 <= 1000
 0 <= x....235 <= 1000
 0 <= x....236 <= 1000
 0 <= x....237 <= 1000
 0 <= x....238 <= 1000
 0 <= x....239 <= 1000
 0 <= x....240 <= 1000
 0 <= y....001 <= 1
 0 <= y....002 <= 1
 0 <= y....003 <= 1
 0 <= y....004 <= 1
 0 <= y....005 <= 1
 0 <= y....006 <= 1
 0 <= y....007 <= 1
 0 <= y....008 <= 1
 0 <= y....009 <= 1
 0 <= y....010 <= 1
 0 <= y....011 <= 1
 0 <= y....012 <= 1
 0 <= y....013 <= 1
 0 <= y....014 <= 1
 0 <= y....015 <= 1
 0 <= y....016 <= 1
 0 <= y....017 <= 1
 0 <= y....018 <= 1
 0 <= y....019 <= 1
 0 <= y....020 <= 1
 0 <= y....021 <= 1
 0 <= y....022 <= 1
 0 <= y....023 <= 1
 0 <= y....024 <= 1
 0 <= y....025 <= 1
 0 <= y....026 <= 1
 0 <= y....027 <= 1
 0 <= y....028 <= 1
 0 <= y....029 <= 1
 0 <= y....030 <= 1
 0 <= y....031 <= 1
 0 <= y....032 <= 1
 0 <= y....033 <= 1
 0 <= y....034 <= 1
 0 <= y....035 <= 1
 0 <= y....036 <= 1
 0 <= y....037 <= 1
 0 <= y....038 <= 1
 0 <= y....039 <= 1
 0 <= y....040 <= 1
 0 <= y....041 <= 1
 0 <= y....042 <= 1
 0 <= y....043 <= 1
 0 <= y....044 <= 1
 0 <= y....045 <= 1
 0 <= y....046 <= 1
 0 <= y....047 <= 1
 0 <= y....048 <= 1
 0 <= y....049 <= 1
 0 <= y....050 <= 1
 0 <= y....051 <= 1
 0 <= y....052 <= 1
 0 <= y....053 <= 1
 0 <= y....054 <= 1
 0 <= y....055 <= 1
 0 <= y....056 <= 1
 0 <= y....057 <= 1
 0 <= y....058 <= 1
 0 <= y....059 <= 1
 0 <= y....060 <= 1
 0 <= y....061 <= 1
 0 <= y....062 <= 1
 0 <= y....063 <= 1
 0 <= y....064 <= 1
 0 <= y....065 <= 1
 0 <= y....066 <= 1
 0 <= y....067 <= 1
 0 <= y....068 <= 1
 0 <= y....069 <= 1
 0 <= y....070 <= 1
 0 <= y....071 <= 1
 0 <= y....072 <= 1
 0 <= y....073 <= 1
 0 <= y....074 <= 1
 0 <= y....075 <= 1
 0 <= y....076 <= 1
 0 <= y....077 <= 1
 0 <= y....078 <= 1
 0 <= y....079 <= 1
 0 <= y....080 <= 1
 0 <= y....081 <= 1
 0 <= y....082 <= 1
 0 <= y....083 <= 1
 0 <= y....084 <= 1
 0 <= y....085 <= 1
 0 <= y....086 <= 1
 0 <= y....087 <= 1
 0 <= y....088 <= 1
 0 <= y....089 <= 1
 0 <= y....090 <= 1
 0 <= y....091 <= 1
 0 <= y....092 <= 1
 0 <= y....093 <= 1
 0 <= y....094 <= 1
 0 <= y....095 <= 1
 0 <= y....096 <= 1
 0 <= y....097 <= 1
 0 <= y....098 <= 1
 0 <= y....099 <= 1
 0 <= y....100 <= 1
 0 <= y....101 <= 1
 0 <= y....102 <= 1
 0 <= y....103 <= 1
 0 <= y....104 <= 1
 0 <= y....105 <= 1
 0 <= y....106 <= 1
 0 <= y....107 <= 1
 0 <= y....108 <= 1
 0 <= y....109 <= 1
 0 <= y....110 <= 1
 0 <= y....111 <= 1
 0 <= y....112 <= 1
 0 <= y....113 <= 1
 0 <= y....114 <= 1
 0 <= y....115 <= 1
 0 <= y....116 <= 1
 0 <= y....117 <= 1
 0 <= y....118 <= 1
 0 <= y....119 <= 1
 0 <= y....120 <= 1
 0 <= y....121 <= 1
 0 <= y....122 <= 1
 0 <= y....123 <= 1
 0 <= y....124 <= 1
 0 <= y....125 <= 1
 0 <= y....126 <= 1
 0 <= y....127 <= 1
 0 <= y....128 <= 1
 0 <= y....129 <= 1
 0 <= y....130 <= 1
 0 <= y....131 <= 1
 0 <= y....132 <= 1
 0 <= y....133 <= 1
 0 <= y....134 <= 1
 0 <= y....135 <= 1
 0 <= y....136 <= 1
 0 <= y....137 <= 1
 0 <= y....138 <= 1
 0 <= y....139 <= 1
 0 <= y....140 <= 1
 0 <= y....141 <= 1
 0 <= y....142 <= 1
 0 <= y....143 <= 1
 0 <= y....144 <= 1
 0 <= y....145 <= 1
 0 <= y....146 <= 1
 0 <= y....147 <= 1
 0 <= y....148 <= 1
 0 <= y....149 <= 1
 0 <= y....150 <= 1
 0 <= y....151 <= 1
 0 <= y....152 <= 1
 0 <= y....153 <= 1
 0 <= y....154 <= 1
 0 <= y....155 <= 1
 0 <= y....156 <= 1
 0 <= y....157 <= 1
 0 <= y....158 <= 1
 0 <= y....159 <= 1
 0 <= y....160 <= 1
 0 <= y....161 <= 1
 0 <= y....162 <= 1
 0 <= y....163 <= 1
 0 <= y....164 <= 1
 0 <= y....165 <= 1
 0 <= y....166 <= 1
 0 <= y....167 <= 1
 0 <= y....168 <= 1
 0 <= y....169 <= 1
 0 <= y....170 <= 1
 0 <= y....171 <= 1
 0 <= y....172 <= 1
 0 <= y....173 <= 1
 0 <= y....174 <= 1
 0 <= y....175 <= 1
 0 <= y....176 <= 1
 0 <= y....177 <= 1
 0 <= y....178 <= 1
 0 <= y....179 <= 1
 0 <= y....180 <= 1
 0 <= y....181 <= 1
 0 <= y....182 <= 1
 0 <= y....183 <= 1
 0 <= y....184 <= 1
 0 <= y....185 <= 1
 0 <= y....186 <= 1
 0 <= y....187 <= 1
 0 <= y....188 <= 1
 0 <= y....189 <= 1
 0 <= y....190 <= 1
 0 <= y....191 <= 1
 0 <= y....192 <= 1
 0 <= y....193 <= 1
 0 <= y....194 <= 1
 0 <= y....195 <= 1
 0 <= y....196 <= 1
 0 <= y....197 <= 1
 0 <= y....198 <= 1
 0 <= y....199 <= 1
 0 <= y....200 <= 1
 0 <= y....201 <= 1
 0 <= y....202 <= 1
 0 <= y....203 <= 1
 0 <= y....204 <= 1
 0 <= y....205 <= 1
 0 <= y....206 <= 1
 0 <= y....207 <= 1
 0 <= y....208 <= 1
 0 <= y....209 <= 1
 0 <= y....210 <= 1
 0 <= y....211 <= 1
 0 <= y....212 <= 1
 0 <= y....213 <= 1
 0 <= y....214 <= 1
 0 <= y....215 <= 1
 0 <= y....216 <= 1
 0 <= y....217 <= 1
 0 <= y....218 <= 1
 0 <= y....219 <= 1
 0 <= y....220 <= 1
 0 <= y....221 <= 1
 0 <= y....222 <= 1
 0 <= y....223 <= 1
 0 <= y....224 <= 1
 0 <= y....225 <= 1
 0 <= y....226 <= 1
 0 <= y....227 <= 1
 0 <= y....228 <= 1
 0 <= y....229 <= 1
 0 <= y....230 <= 1
 0 <= y....231 <= 1
 0 <= y....232 <= 1
 0 <= y....233 <= 1
 0 <= y....234 <= 1
 0 <= y....235 <= 1
 0 <= y....236 <= 1
 0 <= y....237 <= 1
 0 <= y....238 <= 1
 0 <= y....239 <= 1
 0 <= y....240 <= 1
Binaries
 y....001  y....002  y....003  y....004  y....005  y....006  y....007 
 y....008  y....009  y....010  y....011  y....012  y....013  y....014 
 y....015  y....016  y....017  y....018  y....019  y....020  y....021 
 y....022  y....023  y....024  y....025  y....026  y....027  y....028 
 y....029  y....030  y....031  y....032  y....033  y....034  y....035 
 y....036  y....037  y....038  y....039  y....040  y....041  y....042 
 y....043  y....044  y....045  y....046  y....047  y....048  y....049 
 y....050  y....051  y....052  y....053  y....054  y....055  y....056 
 y....057  y....058  y....059  y....060  y....061  y....062  y....063 
 y....064  y....065  y....066  y....067  y....068  y....069  y....070 
 y....071  y....072  y....073  y....074  y....075  y....076  y....077 
 y....078  y....079  y....080  y....081  y....082  y....083  y....084 
 y....085  y....086  y....087  y....088  y....089  y....090  y....091 
 y....092  y....093  y....094  y....095  y....096  y....097  y....098 
 y....099  y....100  y....101  y....102  y....103  y....104  y....105 
 y....106  y....107  y....108  y....109  y....110  y....111  y....112 
 y....113  y....114  y....115  y....116  y....117  y....118  y....119 
 y....120  y....121  y....122  y....123  y....124  y....125  y....126 
 y....127  y....128  y....129  y....130  y....131  y....132  y....133 
 y....134  y....135  y....136  y....137  y....138  y....139  y....140 
 y....141  y....142  y....143  y....144  y....145  y....146  y....147 
 y....148  y....149  y....150  y....151  y....152  y....153  y....154 
 y....155  y....156  y....157  y....158  y....159  y....160  y....161 
 y....162  y....163  y....164  y....165  y....166  y....167  y....168 
 y....169  y....170  y....171  y....172  y....173  y....174  y....175 
 y....176  y....177  y....178  y....179  y....180  y....181  y....182 
 y....183  y....184  y....185  y....186  y....187  y....188  y....189 
 y....190  y....191  y....192  y....193  y....194  y....195  y....196 
 y....197  y....198  y....199  y....200  y....201  y....202  y....203 
 y....204  y....205  y....206  y....207  y....208  y....209  y....210 
 y....211  y....212  y....213  y....214  y....215  y....216  y....217 
 y....218  y....219  y....220  y....221  y....222  y....223  y....224 
 y....225  y....226  y....227  y....228  y....229  y....230  y....231 
 y....232  y....233  y....234  y....235  y....236  y....237  y....238 
 y....239  y....240 
End
